; benchmark generated from python API
(set-info :status unknown)
(declare-datatypes ((IntState 0)) (((Mk1 (val1 Int)) (Mk2 (val2 Int)))))
 (declare-fun c_main_~i~6 () Int)
(declare-fun c_main_~j~6 () Int)
(declare-fun c_main_~k~6 () Int)
(assert
 (let (($x105 (<= c_main_~j~6 (+ (* 2 c_main_~i~6) 1))))
 (let (($x110 (<= c_main_~j~6 (+ (* 2 c_main_~i~6) 2))))
 (let (($x174 (<= c_main_~i~6 3)))
 (let (($x179 (exists ((main_~i~6_st IntState) (val!131 Int) )(let ((?x56 (val2 main_~i~6_st)))
 (let (($x160 (<= ?x56 3)))
 (let (($x128 (and (<= c_main_~j~6 (+ (* 2 ?x56) 2)) $x160 (<= ?x56 c_main_~k~6))))
 (let (($x52 (not (= main_~i~6_st (Mk1 val!131)))))
 (and $x52 $x128))))))
 ))
 (let (($x149 (<= c_main_~i~6 2)))
 (let ((?x162 (* 2 c_main_~i~6)))
 (let (($x177 (<= c_main_~j~6 ?x162)))
 (let (($x43 (exists ((v_nnf_44 Int) )(let (($x111 (<= v_nnf_44 3)))
 (let (($x117 (<= c_main_~j~6 (+ (* 2 v_nnf_44) 2))))
 (and (<= (+ v_nnf_44 1) c_main_~k~6) $x117 $x111))))
 ))
 (let (($x90 (<= c_main_~i~6 1)))
 (and (and $x90 $x149 $x43 $x177 $x174 $x110 $x105) (not (and $x149 $x179 $x174 $x110 $x105)))))))))))))
(check-sat)
